NAME : xqf131_solution.tour
TYPE : TOUR
DIMENSION : 132
COMMENT : Tour length: 2046.8866
COMMENT : Time elapsed: 197.33 [s]
TOUR_SECTION
0
11
3
4
16
65
88
70
20
62
59
114
102
118
121
125
115
98
105
124
123
104
99
92
86
44
54
78
37
34
32
8
40
18
80
58
36
49
72
116
109
110
112
106
120
129
122
100
93
91
89
90
94
103
119
128
126
127
95
96
85
56
23
14
27
15
45
71
31
38
66
75
46
2
51
1
50
19
53
81
68
77
87
84
79
48
61
55
60
33
73
67
43
28
26
10
9
6
35
21
7
5
25
12
24
52
17
74
64
29
22
42
39
41
113
117
97
101
111
108
130
107
83
82
57
30
47
69
63
76
13
0
-1
EOF
